17	4
42	39	51	44	
0	0	0	0	0	3	2	3	4	
1	1	8	7	0	3	5	6	10	
6	0	0	9	9	1	17	
10	1	10	0	3	3	9	14	17	
10	9	5	9	8	2	8	17	
50	0	1	1	7	3	7	11	15	
225	3	2	9	7	2	17	17	
225	5	8	10	6	2	17	17	
175	0	6	6	9	1	17	
125	0	1	10	6	3	12	13	16	
125	0	3	8	8	2	17	17	
25	0	1	0	10	1	17	
9	7	0	1	0	1	17	
6	8	6	2	9	1	17	
7	2	6	6	0	1	17	
4	0	2	0	8	1	17	
0	0	0	0	0	0	
